param n := 3;
set S[1] := 1 2 3 4 5 6 7 8 9 10;
set S[2] := 1 2 3 4 5 6 7 8 9 10;
set S[3] := 1 2 3 4 5 6 7 8 9 10;

param A :=
[*,1,1,1]  1 567 2 325 3 563
[*,2,1,1]  1 444 2 636 3 281
[*,3,1,1]  1 266 2 348 3 441
[*,4,1,1]  1 464 2 537 3 535
[*,5,1,1]  1 541 2 440 3 545
[*,6,1,1]  1 481 2 483 3 587
[*,7,1,1]  1 689 2 425 3 294
[*,8,1,1]  1 563 2 492 3 583
[*,9,1,1]  1 345 2 516 3 382
[*,10,1,1]  1 333 2 618 3 586
[*,1,2,1]  1 454 2 262 3 164
[*,2,2,1]  1 468 2 332 3 500
[*,3,2,1]  1 381 2 150 3 579
[*,4,2,1]  1 349 2 441 3 473
[*,5,2,1]  1 661 2 293 3 388
[*,6,2,1]  1 541 2 358 3 469
[*,7,2,1]  1 409 2 282 3 525
[*,8,2,1]  1 398 2 500 3 318
[*,9,2,1]  1 384 2 492 3 519
[*,10,2,1]  1 499 2 376 3 350
[*,1,3,1]  1 202 2 352 3 405
[*,2,3,1]  1 488 2 426 3 510
[*,3,3,1]  1 412 2 350 3 337
[*,4,3,1]  1 148 2 500 3 399
[*,5,3,1]  1 367 2 467 3 450
[*,6,3,1]  1 303 2 371 3 565
[*,7,3,1]  1 215 2 636 3 436
[*,8,3,1]  1 513 2 519 3 509
[*,9,3,1]  1 428 2 354 3 364
[*,10,3,1]  1 502 2 292 3 296
[*,1,4,1]  1 596 2 255 3 260
[*,2,4,1]  1 370 2 295 3 313
[*,3,4,1]  1 577 2 295 3 368
[*,4,4,1]  1 592 2 236 3 246
[*,5,4,1]  1 524 2 588 3 252
[*,6,4,1]  1 289 2 504 3 355
[*,7,4,1]  1 491 2 316 3 294
[*,8,4,1]  1 458 2 351 3 458
[*,9,4,1]  1 543 2 452 3 278
[*,10,4,1]  1 383 2 581 3 429
[*,1,5,1]  1 394 2 647 3 193
[*,2,5,1]  1 656 2 597 3 263
[*,3,5,1]  1 406 2 471 3 494
[*,4,5,1]  1 539 2 502 3 259
[*,5,5,1]  1 332 2 225 3 571
[*,6,5,1]  1 345 2 478 3 394
[*,7,5,1]  1 302 2 264 3 304
[*,8,5,1]  1 607 2 579 3 455
[*,9,5,1]  1 361 2 400 3 505
[*,10,5,1]  1 488 2 312 3 462
[*,1,6,1]  1 397 2 628 3 577
[*,2,6,1]  1 708 2 276 3 412
[*,3,6,1]  1 506 2 307 3 485
[*,4,6,1]  1 616 2 439 3 552
[*,5,6,1]  1 384 2 305 3 539
[*,6,6,1]  1 603 2 389 3 591
[*,7,6,1]  1 484 2 429 3 549
[*,8,6,1]  1 455 2 467 3 377
[*,9,6,1]  1 298 2 589 3 369
[*,10,6,1]  1 436 2 298 3 395
[*,1,7,1]  1 338 2 241 3 432
[*,2,7,1]  1 431 2 696 3 191
[*,3,7,1]  1 596 2 264 3 471
[*,4,7,1]  1 390 2 357 3 479
[*,5,7,1]  1 309 2 286 3 434
[*,6,7,1]  1 348 2 571 3 410
[*,7,7,1]  1 181 2 348 3 492
[*,8,7,1]  1 408 2 823 3 368
[*,9,7,1]  1 593 2 405 3 365
[*,10,7,1]  1 495 2 700 3 464
[*,1,8,1]  1 408 2 258 3 468
[*,2,8,1]  1 450 2 476 3 518
[*,3,8,1]  1 496 2 510 3 392
[*,4,8,1]  1 490 2 421 3 419
[*,5,8,1]  1 633 2 474 3 382
[*,6,8,1]  1 551 2 336 3 414
[*,7,8,1]  1 735 2 535 3 143
[*,8,8,1]  1 553 2 549 3 552
[*,9,8,1]  1 373 2 565 3 359
[*,10,8,1]  1 509 2 549 3 357
[*,1,9,1]  1 554 2 244 3 464
[*,2,9,1]  1 443 2 472 3 504
[*,3,9,1]  1 531 2 273 3 471
[*,4,9,1]  1 513 2 444 3 501
[*,5,9,1]  1 221 2 450 3 646
[*,6,9,1]  1 326 2 474 3 477
[*,7,9,1]  1 505 2 383 3 497
[*,8,9,1]  1 473 2 443 3 288
[*,9,9,1]  1 436 2 382 3 535
[*,10,9,1]  1 742 2 366 3 384
[*,1,10,1]  1 435 2 473 3 721
[*,2,10,1]  1 389 2 481 3 355
[*,3,10,1]  1 522 2 527 3 502
[*,4,10,1]  1 574 2 617 3 142
[*,5,10,1]  1 194 2 496 3 394
[*,6,10,1]  1 543 2 385 3 284
[*,7,10,1]  1 275 2 666 3 325
[*,8,10,1]  1 579 2 457 3 590
[*,9,10,1]  1 477 2 281 3 512
[*,10,10,1]  1 323 2 372 3 543
[*,1,1,2]  1 403 2 326 3 384
[*,2,1,2]  1 476 2 472 3 465
[*,3,1,2]  1 769 2 467 3 121
[*,4,1,2]  1 332 2 389 3 308
[*,5,1,2]  1 646 2 387 3 411
[*,6,1,2]  1 320 2 394 3 546
[*,7,1,2]  1 318 2 387 3 731
[*,8,1,2]  1 568 2 276 3 450
[*,9,1,2]  1 516 2 559 3 287
[*,10,1,2]  1 237 2 615 3 317
[*,1,2,2]  1 538 2 387 3 401
[*,2,2,2]  1 576 2 530 3 455
[*,3,2,2]  1 360 2 459 3 445
[*,4,2,2]  1 363 2 268 3 521
[*,5,2,2]  1 507 2 519 3 452
[*,6,2,2]  1 370 2 419 3 593
[*,7,2,2]  1 423 2 522 3 443
[*,8,2,2]  1 466 2 336 3 458
[*,9,2,2]  1 580 2 586 3 243
[*,10,2,2]  1 388 2 655 3 413
[*,1,3,2]  1 580 2 355 3 242
[*,2,3,2]  1 565 2 397 3 569
[*,3,3,2]  1 448 2 444 3 459
[*,4,3,2]  1 485 2 421 3 425
[*,5,3,2]  1 402 2 535 3 494
[*,6,3,2]  1 490 2 190 3 528
[*,7,3,2]  1 329 2 322 3 513
[*,8,3,2]  1 367 2 514 3 456
[*,9,3,2]  1 405 2 503 3 675
[*,10,3,2]  1 546 2 460 3 311
[*,1,4,2]  1 531 2 346 3 241
[*,2,4,2]  1 348 2 394 3 498
[*,3,4,2]  1 267 2 599 3 240
[*,4,4,2]  1 517 2 127 3 410
[*,5,4,2]  1 470 2 432 3 411
[*,6,4,2]  1 306 2 659 3 386
[*,7,4,2]  1 628 2 379 3 345
[*,8,4,2]  1 306 2 490 3 599
[*,9,4,2]  1 417 2 669 3 457
[*,10,4,2]  1 330 2 490 3 496
[*,1,5,2]  1 392 2 389 3 560
[*,2,5,2]  1 389 2 523 3 255
[*,3,5,2]  1 593 2 424 3 362
[*,4,5,2]  1 553 2 460 3 412
[*,5,5,2]  1 293 2 547 3 388
[*,6,5,2]  1 449 2 417 3 296
[*,7,5,2]  1 375 2 510 3 486
[*,8,5,2]  1 550 2 612 3 342
[*,9,5,2]  1 636 2 490 3 331
[*,10,5,2]  1 620 2 492 3 508
[*,1,6,2]  1 237 2 618 3 244
[*,2,6,2]  1 566 2 535 3 423
[*,3,6,2]  1 450 2 140 3 540
[*,4,6,2]  1 406 2 374 3 369
[*,5,6,2]  1 307 2 543 3 460
[*,6,6,2]  1 444 2 583 3 529
[*,7,6,2]  1 356 2 403 3 370
[*,8,6,2]  1 432 2 304 3 482
[*,9,6,2]  1 496 2 401 3 431
[*,10,6,2]  1 378 2 542 3 299
[*,1,7,2]  1 514 2 430 3 487
[*,2,7,2]  1 275 2 383 3 578
[*,3,7,2]  1 313 2 482 3 222
[*,4,7,2]  1 478 2 377 3 267
[*,5,7,2]  1 524 2 428 3 316
[*,6,7,2]  1 550 2 512 3 278
[*,7,7,2]  1 503 2 441 3 348
[*,8,7,2]  1 447 2 633 3 449
[*,9,7,2]  1 413 2 329 3 357
[*,10,7,2]  1 335 2 309 3 592
[*,1,8,2]  1 354 2 405 3 468
[*,2,8,2]  1 718 2 369 3 506
[*,3,8,2]  1 378 2 531 3 417
[*,4,8,2]  1 521 2 425 3 588
[*,5,8,2]  1 339 2 570 3 489
[*,6,8,2]  1 460 2 315 3 448
[*,7,8,2]  1 364 2 364 3 627
[*,8,8,2]  1 529 2 414 3 518
[*,9,8,2]  1 421 2 299 3 280
[*,10,8,2]  1 408 2 466 3 574
[*,1,9,2]  1 612 2 633 3 478
[*,2,9,2]  1 559 2 342 3 403
[*,3,9,2]  1 376 2 437 3 633
[*,4,9,2]  1 328 2 571 3 345
[*,5,9,2]  1 365 2 256 3 219
[*,6,9,2]  1 520 2 446 3 183
[*,7,9,2]  1 302 2 512 3 354
[*,8,9,2]  1 385 2 574 3 416
[*,9,9,2]  1 435 2 236 3 627
[*,10,9,2]  1 434 2 495 3 330
[*,1,10,2]  1 543 2 376 3 471
[*,2,10,2]  1 445 2 507 3 506
[*,3,10,2]  1 488 2 494 3 491
[*,4,10,2]  1 575 2 522 3 463
[*,5,10,2]  1 461 2 241 3 350
[*,6,10,2]  1 414 2 448 3 507
[*,7,10,2]  1 290 2 580 3 544
[*,8,10,2]  1 288 2 517 3 386
[*,9,10,2]  1 628 2 349 3 282
[*,10,10,2]  1 671 2 312 3 344
[*,1,1,3]  1 269 2 643 3 526
[*,2,1,3]  1 315 2 632 3 187
[*,3,1,3]  1 128 2 471 3 531
[*,4,1,3]  1 455 2 382 3 388
[*,5,1,3]  1 670 2 479 3 346
[*,6,1,3]  1 357 2 447 3 542
[*,7,1,3]  1 411 2 325 3 520
[*,8,1,3]  1 501 2 375 3 342
[*,9,1,3]  1 588 2 380 3 442
[*,10,1,3]  1 437 2 622 3 448
[*,1,2,3]  1 555 2 496 3 240
[*,2,2,3]  1 485 2 244 3 448
[*,3,2,3]  1 479 2 387 3 448
[*,4,2,3]  1 421 2 302 3 413
[*,5,2,3]  1 451 2 325 3 303
[*,6,2,3]  1 637 2 362 3 434
[*,7,2,3]  1 505 2 660 3 413
[*,8,2,3]  1 475 2 435 3 519
[*,9,2,3]  1 206 2 377 3 482
[*,10,2,3]  1 413 2 459 3 207
[*,1,3,3]  1 406 2 472 3 309
[*,2,3,3]  1 516 2 328 3 492
[*,3,3,3]  1 333 2 150 3 512
[*,4,3,3]  1 520 2 265 3 579
[*,5,3,3]  1 337 2 375 3 608
[*,6,3,3]  1 495 2 425 3 423
[*,7,3,3]  1 447 2 431 3 391
[*,8,3,3]  1 421 2 319 3 504
[*,9,3,3]  1 246 2 680 3 529
[*,10,3,3]  1 214 2 530 3 370
[*,1,4,3]  1 389 2 244 3 790
[*,2,4,3]  1 347 2 646 3 379
[*,3,4,3]  1 356 2 630 3 242
[*,4,4,3]  1 467 2 385 3 467
[*,5,4,3]  1 363 2 28 3 708
[*,6,4,3]  1 582 2 541 3 353
[*,7,4,3]  1 483 2 439 3 369
[*,8,4,3]  1 533 2 384 3 627
[*,9,4,3]  1 500 2 375 3 243
[*,10,4,3]  1 386 2 658 3 199
[*,1,5,3]  1 383 2 460 3 289
[*,2,5,3]  1 397 2 498 3 356
[*,3,5,3]  1 523 2 393 3 375
[*,4,5,3]  1 542 2 537 3 297
[*,5,5,3]  1 477 2 407 3 424
[*,6,5,3]  1 230 2 497 3 291
[*,7,5,3]  1 420 2 571 3 430
[*,8,5,3]  1 427 2 75 3 570
[*,9,5,3]  1 423 2 449 3 479
[*,10,5,3]  1 458 2 341 3 567
[*,1,6,3]  1 483 2 373 3 503
[*,2,6,3]  1 639 2 371 3 255
[*,3,6,3]  1 761 2 370 3 224
[*,4,6,3]  1 624 2 291 3 309
[*,5,6,3]  1 731 2 281 3 433
[*,6,6,3]  1 281 2 566 3 480
[*,7,6,3]  1 505 2 429 3 330
[*,8,6,3]  1 653 2 423 3 448
[*,9,6,3]  1 422 2 567 3 547
[*,10,6,3]  1 427 2 533 3 325
[*,1,7,3]  1 300 2 409 3 684
[*,2,7,3]  1 552 2 349 3 613
[*,3,7,3]  1 483 2 274 3 433
[*,4,7,3]  1 383 2 511 3 557
[*,5,7,3]  1 457 2 418 3 347
[*,6,7,3]  1 482 2 446 3 471
[*,7,7,3]  1 402 2 525 3 245
[*,8,7,3]  1 622 2 316 3 448
[*,9,7,3]  1 1 2 562 3 282
[*,10,7,3]  1 343 2 377 3 508
[*,1,8,3]  1 265 2 413 3 533
[*,2,8,3]  1 427 2 522 3 463
[*,3,8,3]  1 688 2 391 3 322
[*,4,8,3]  1 629 2 646 3 319
[*,5,8,3]  1 623 2 300 3 499
[*,6,8,3]  1 440 2 366 3 571
[*,7,8,3]  1 664 2 574 3 258
[*,8,8,3]  1 564 2 417 3 366
[*,9,8,3]  1 404 2 677 3 427
[*,10,8,3]  1 258 2 494 3 246
[*,1,9,3]  1 373 2 483 3 400
[*,2,9,3]  1 467 2 414 3 274
[*,3,9,3]  1 556 2 508 3 357
[*,4,9,3]  1 383 2 451 3 269
[*,5,9,3]  1 346 2 421 3 544
[*,6,9,3]  1 543 2 512 3 496
[*,7,9,3]  1 528 2 596 3 354
[*,8,9,3]  1 445 2 415 3 354
[*,9,9,3]  1 664 2 450 3 268
[*,10,9,3]  1 439 2 387 3 460
[*,1,10,3]  1 448 2 364 3 383
[*,2,10,3]  1 295 2 292 3 587
[*,3,10,3]  1 290 2 295 3 567
[*,4,10,3]  1 380 2 353 3 741
[*,5,10,3]  1 598 2 412 3 496
[*,6,10,3]  1 291 2 342 3 480
[*,7,10,3]  1 444 2 509 3 335
[*,8,10,3]  1 535 2 404 3 504
[*,9,10,3]  1 519 2 537 3 346
[*,10,10,3]  1 711 2 531 3 413
[*,1,1,4]  1 379 2 493 3 505
[*,2,1,4]  1 486 2 195 3 505
[*,3,1,4]  1 439 2 362 3 259
[*,4,1,4]  1 352 2 715 3 409
[*,5,1,4]  1 649 2 247 3 454
[*,6,1,4]  1 502 2 242 3 334
[*,7,1,4]  1 443 2 410 3 573
[*,8,1,4]  1 477 2 415 3 641
[*,9,1,4]  1 176 2 700 3 534
[*,10,1,4]  1 515 2 348 3 528
[*,1,2,4]  1 265 2 378 3 532
[*,2,2,4]  1 434 2 539 3 428
[*,3,2,4]  1 348 2 654 3 568
[*,4,2,4]  1 453 2 562 3 427
[*,5,2,4]  1 409 2 646 3 398
[*,6,2,4]  1 567 2 414 3 613
[*,7,2,4]  1 729 2 360 3 350
[*,8,2,4]  1 353 2 612 3 357
[*,9,2,4]  1 521 2 422 3 402
[*,10,2,4]  1 500 2 238 3 440
[*,1,3,4]  1 603 2 523 3 356
[*,2,3,4]  1 571 2 330 3 490
[*,3,3,4]  1 498 2 540 3 363
[*,4,3,4]  1 508 2 612 3 462
[*,5,3,4]  1 576 2 361 3 504
[*,6,3,4]  1 331 2 465 3 454
[*,7,3,4]  1 389 2 556 3 400
[*,8,3,4]  1 574 2 396 3 103
[*,9,3,4]  1 295 2 504 3 346
[*,10,3,4]  1 558 2 484 3 356
[*,1,4,4]  1 441 2 400 3 393
[*,2,4,4]  1 436 2 440 3 537
[*,3,4,4]  1 258 2 393 3 476
[*,4,4,4]  1 463 2 467 3 423
[*,5,4,4]  1 345 2 171 3 686
[*,6,4,4]  1 566 2 497 3 323
[*,7,4,4]  1 419 2 77 3 584
[*,8,4,4]  1 616 2 383 3 292
[*,9,4,4]  1 546 2 453 3 531
[*,10,4,4]  1 434 2 509 3 293
[*,1,5,4]  1 436 2 435 3 475
[*,2,5,4]  1 488 2 307 3 541
[*,3,5,4]  1 486 2 696 3 386
[*,4,5,4]  1 425 2 645 3 400
[*,5,5,4]  1 545 2 434 3 336
[*,6,5,4]  1 304 2 450 3 486
[*,7,5,4]  1 418 2 314 3 401
[*,8,5,4]  1 377 2 453 3 550
[*,9,5,4]  1 417 2 422 3 313
[*,10,5,4]  1 774 2 233 3 461
[*,1,6,4]  1 411 2 551 3 311
[*,2,6,4]  1 351 2 355 3 507
[*,3,6,4]  1 195 2 462 3 547
[*,4,6,4]  1 577 2 302 3 514
[*,5,6,4]  1 247 2 414 3 494
[*,6,6,4]  1 538 2 182 3 391
[*,7,6,4]  1 507 2 449 3 361
[*,8,6,4]  1 577 2 431 3 467
[*,9,6,4]  1 344 2 417 3 509
[*,10,6,4]  1 394 2 634 3 358
[*,1,7,4]  1 508 2 504 3 515
[*,2,7,4]  1 469 2 231 3 481
[*,3,7,4]  1 625 2 413 3 384
[*,4,7,4]  1 394 2 375 3 455
[*,5,7,4]  1 354 2 394 3 646
[*,6,7,4]  1 559 2 423 3 507
[*,7,7,4]  1 548 2 541 3 386
[*,8,7,4]  1 385 2 583 3 480
[*,9,7,4]  1 450 2 623 3 354
[*,10,7,4]  1 528 2 655 3 527
[*,1,8,4]  1 478 2 556 3 534
[*,2,8,4]  1 438 2 554 3 385
[*,3,8,4]  1 362 2 468 3 481
[*,4,8,4]  1 350 2 514 3 413
[*,5,8,4]  1 415 2 631 3 376
[*,6,8,4]  1 585 2 322 3 287
[*,7,8,4]  1 426 2 541 3 325
[*,8,8,4]  1 610 2 324 3 199
[*,9,8,4]  1 456 2 363 3 321
[*,10,8,4]  1 398 2 399 3 504
[*,1,9,4]  1 593 2 527 3 470
[*,2,9,4]  1 376 2 413 3 461
[*,3,9,4]  1 566 2 349 3 444
[*,4,9,4]  1 314 2 439 3 428
[*,5,9,4]  1 363 2 561 3 453
[*,6,9,4]  1 711 2 400 3 429
[*,7,9,4]  1 497 2 335 3 297
[*,8,9,4]  1 390 2 310 3 579
[*,9,9,4]  1 333 2 587 3 306
[*,10,9,4]  1 396 2 440 3 468
[*,1,10,4]  1 284 2 301 3 528
[*,2,10,4]  1 496 2 350 3 366
[*,3,10,4]  1 514 2 516 3 357
[*,4,10,4]  1 450 2 465 3 521
[*,5,10,4]  1 499 2 484 3 205
[*,6,10,4]  1 853 2 314 3 362
[*,7,10,4]  1 524 2 347 3 279
[*,8,10,4]  1 321 2 513 3 473
[*,9,10,4]  1 601 2 259 3 594
[*,10,10,4]  1 396 2 486 3 428
[*,1,1,5]  1 558 2 470 3 542
[*,2,1,5]  1 430 2 233 3 564
[*,3,1,5]  1 412 2 415 3 557
[*,4,1,5]  1 390 2 353 3 360
[*,5,1,5]  1 641 2 576 3 210
[*,6,1,5]  1 396 2 544 3 290
[*,7,1,5]  1 424 2 477 3 532
[*,8,1,5]  1 473 2 311 3 503
[*,9,1,5]  1 405 2 446 3 470
[*,10,1,5]  1 399 2 590 3 299
[*,1,2,5]  1 647 2 407 3 364
[*,2,2,5]  1 356 2 344 3 694
[*,3,2,5]  1 712 2 367 3 397
[*,4,2,5]  1 428 2 429 3 308
[*,5,2,5]  1 482 2 401 3 353
[*,6,2,5]  1 508 2 429 3 630
[*,7,2,5]  1 315 2 332 3 355
[*,8,2,5]  1 431 2 411 3 417
[*,9,2,5]  1 352 2 759 3 488
[*,10,2,5]  1 534 2 491 3 494
[*,1,3,5]  1 472 2 358 3 409
[*,2,3,5]  1 349 2 651 3 397
[*,3,3,5]  1 632 2 407 3 400
[*,4,3,5]  1 521 2 425 3 388
[*,5,3,5]  1 562 2 410 3 250
[*,6,3,5]  1 537 2 368 3 756
[*,7,3,5]  1 539 2 395 3 425
[*,8,3,5]  1 462 2 481 3 367
[*,9,3,5]  1 32 2 448 3 670
[*,10,3,5]  1 553 2 305 3 455
[*,1,4,5]  1 1000 2 266 3 391
[*,2,4,5]  1 461 2 354 3 400
[*,3,4,5]  1 328 2 394 3 391
[*,4,4,5]  1 440 2 296 3 610
[*,5,4,5]  1 512 2 287 3 475
[*,6,4,5]  1 289 2 588 3 330
[*,7,4,5]  1 500 2 520 3 424
[*,8,4,5]  1 440 2 402 3 266
[*,9,4,5]  1 368 2 644 3 451
[*,10,4,5]  1 565 2 477 3 426
[*,1,5,5]  1 446 2 499 3 392
[*,2,5,5]  1 214 2 527 3 506
[*,3,5,5]  1 350 2 395 3 607
[*,4,5,5]  1 420 2 239 3 413
[*,5,5,5]  1 324 2 315 3 579
[*,6,5,5]  1 414 2 250 3 671
[*,7,5,5]  1 518 2 458 3 422
[*,8,5,5]  1 317 2 287 3 555
[*,9,5,5]  1 479 2 156 3 372
[*,10,5,5]  1 412 2 328 3 324
[*,1,6,5]  1 562 2 501 3 209
[*,2,6,5]  1 326 2 285 3 639
[*,3,6,5]  1 404 2 613 3 373
[*,4,6,5]  1 397 2 628 3 367
[*,5,6,5]  1 247 2 477 3 425
[*,6,6,5]  1 365 2 368 3 538
[*,7,6,5]  1 222 2 781 3 356
[*,8,6,5]  1 494 2 648 3 494
[*,9,6,5]  1 574 2 469 3 325
[*,10,6,5]  1 237 2 597 3 449
[*,1,7,5]  1 507 2 511 3 277
[*,2,7,5]  1 561 2 582 3 402
[*,3,7,5]  1 323 2 581 3 350
[*,4,7,5]  1 304 2 573 3 452
[*,5,7,5]  1 456 2 426 3 417
[*,6,7,5]  1 307 2 388 3 413
[*,7,7,5]  1 375 2 387 3 615
[*,8,7,5]  1 425 2 412 3 603
[*,9,7,5]  1 571 2 439 3 395
[*,10,7,5]  1 388 2 388 3 565
[*,1,8,5]  1 453 2 567 3 291
[*,2,8,5]  1 526 2 485 3 337
[*,3,8,5]  1 231 2 557 3 228
[*,4,8,5]  1 355 2 415 3 565
[*,5,8,5]  1 381 2 461 3 409
[*,6,8,5]  1 532 2 513 3 368
[*,7,8,5]  1 438 2 532 3 573
[*,8,8,5]  1 448 2 319 3 407
[*,9,8,5]  1 376 2 500 3 357
[*,10,8,5]  1 532 2 337 3 557
[*,1,9,5]  1 373 2 185 3 514
[*,2,9,5]  1 483 2 583 3 262
[*,3,9,5]  1 311 2 526 3 624
[*,4,9,5]  1 395 2 376 3 460
[*,5,9,5]  1 329 2 408 3 735
[*,6,9,5]  1 298 2 442 3 431
[*,7,9,5]  1 573 2 347 3 326
[*,8,9,5]  1 297 2 525 3 365
[*,9,9,5]  1 666 2 446 3 94
[*,10,9,5]  1 466 2 482 3 259
[*,1,10,5]  1 343 2 268 3 371
[*,2,10,5]  1 362 2 425 3 529
[*,3,10,5]  1 400 2 442 3 491
[*,4,10,5]  1 379 2 540 3 497
[*,5,10,5]  1 664 2 263 3 448
[*,6,10,5]  1 353 2 381 3 472
[*,7,10,5]  1 527 2 322 3 540
[*,8,10,5]  1 391 2 439 3 591
[*,9,10,5]  1 490 2 462 3 740
[*,10,10,5]  1 386 2 466 3 361
[*,1,1,6]  1 248 2 496 3 562
[*,2,1,6]  1 590 2 492 3 334
[*,3,1,6]  1 646 2 357 3 416
[*,4,1,6]  1 554 2 646 3 298
[*,5,1,6]  1 463 2 474 3 517
[*,6,1,6]  1 553 2 444 3 255
[*,7,1,6]  1 253 2 615 3 371
[*,8,1,6]  1 479 2 427 3 442
[*,9,1,6]  1 391 2 395 3 368
[*,10,1,6]  1 679 2 576 3 289
[*,1,2,6]  1 362 2 334 3 355
[*,2,2,6]  1 318 2 380 3 488
[*,3,2,6]  1 215 2 599 3 403
[*,4,2,6]  1 220 2 582 3 488
[*,5,2,6]  1 542 2 425 3 594
[*,6,2,6]  1 420 2 447 3 552
[*,7,2,6]  1 631 2 364 3 364
[*,8,2,6]  1 354 2 713 3 262
[*,9,2,6]  1 353 2 419 3 561
[*,10,2,6]  1 553 2 416 3 305
[*,1,3,6]  1 415 2 334 3 702
[*,2,3,6]  1 486 2 417 3 602
[*,3,3,6]  1 651 2 430 3 570
[*,4,3,6]  1 535 2 416 3 479
[*,5,3,6]  1 505 2 342 3 387
[*,6,3,6]  1 511 2 483 3 436
[*,7,3,6]  1 427 2 644 3 334
[*,8,3,6]  1 431 2 514 3 380
[*,9,3,6]  1 620 2 326 3 414
[*,10,3,6]  1 542 2 412 3 441
[*,1,4,6]  1 381 2 412 3 425
[*,2,4,6]  1 231 2 505 3 375
[*,3,4,6]  1 434 2 468 3 464
[*,4,4,6]  1 568 2 354 3 574
[*,5,4,6]  1 618 2 506 3 547
[*,6,4,6]  1 303 2 701 3 221
[*,7,4,6]  1 460 2 560 3 459
[*,8,4,6]  1 174 2 305 3 509
[*,9,4,6]  1 584 2 216 3 263
[*,10,4,6]  1 369 2 490 3 625
[*,1,5,6]  1 412 2 281 3 866
[*,2,5,6]  1 534 2 448 3 314
[*,3,5,6]  1 304 2 495 3 349
[*,4,5,6]  1 283 2 352 3 616
[*,5,5,6]  1 456 2 274 3 528
[*,6,5,6]  1 584 2 520 3 111
[*,7,5,6]  1 562 2 395 3 274
[*,8,5,6]  1 468 2 371 3 459
[*,9,5,6]  1 478 2 697 3 240
[*,10,5,6]  1 566 2 444 3 378
[*,1,6,6]  1 759 2 527 3 273
[*,2,6,6]  1 332 2 470 3 320
[*,3,6,6]  1 351 2 863 3 251
[*,4,6,6]  1 331 2 419 3 658
[*,5,6,6]  1 391 2 320 3 441
[*,6,6,6]  1 326 2 425 3 325
[*,7,6,6]  1 174 2 364 3 695
[*,8,6,6]  1 318 2 551 3 336
[*,9,6,6]  1 306 2 289 3 375
[*,10,6,6]  1 339 2 504 3 352
[*,1,7,6]  1 562 2 525 3 407
[*,2,7,6]  1 404 2 292 3 658
[*,3,7,6]  1 571 2 491 3 595
[*,4,7,6]  1 538 2 695 3 480
[*,5,7,6]  1 330 2 364 3 505
[*,6,7,6]  1 331 2 462 3 388
[*,7,7,6]  1 495 2 249 3 552
[*,8,7,6]  1 668 2 184 3 340
[*,9,7,6]  1 364 2 659 3 622
[*,10,7,6]  1 477 2 323 3 348
[*,1,8,6]  1 365 2 647 3 412
[*,2,8,6]  1 347 2 256 3 330
[*,3,8,6]  1 277 2 483 3 456
[*,4,8,6]  1 551 2 401 3 351
[*,5,8,6]  1 512 2 643 3 456
[*,6,8,6]  1 428 2 350 3 256
[*,7,8,6]  1 286 2 517 3 418
[*,8,8,6]  1 446 2 324 3 431
[*,9,8,6]  1 694 2 457 3 439
[*,10,8,6]  1 545 2 435 3 509
[*,1,9,6]  1 354 2 476 3 483
[*,2,9,6]  1 545 2 572 3 357
[*,3,9,6]  1 477 2 435 3 577
[*,4,9,6]  1 370 2 407 3 388
[*,5,9,6]  1 435 2 363 3 402
[*,6,9,6]  1 392 2 502 3 181
[*,7,9,6]  1 564 2 543 3 558
[*,8,9,6]  1 339 2 415 3 603
[*,9,9,6]  1 406 2 109 3 337
[*,10,9,6]  1 446 2 569 3 339
[*,1,10,6]  1 449 2 481 3 460
[*,2,10,6]  1 363 2 423 3 360
[*,3,10,6]  1 385 2 360 3 507
[*,4,10,6]  1 511 2 612 3 196
[*,5,10,6]  1 388 2 555 3 401
[*,6,10,6]  1 599 2 459 3 485
[*,7,10,6]  1 454 2 470 3 410
[*,8,10,6]  1 440 2 372 3 494
[*,9,10,6]  1 508 2 237 3 305
[*,10,10,6]  1 597 2 376 3 579
[*,1,1,7]  1 480 2 586 3 307
[*,2,1,7]  1 437 2 355 3 366
[*,3,1,7]  1 509 2 382 3 496
[*,4,1,7]  1 332 2 509 3 294
[*,5,1,7]  1 359 2 447 3 499
[*,6,1,7]  1 711 2 510 3 306
[*,7,1,7]  1 551 2 689 3 215
[*,8,1,7]  1 429 2 411 3 292
[*,9,1,7]  1 510 2 658 3 313
[*,10,1,7]  1 463 2 350 3 389
[*,1,2,7]  1 520 2 535 3 269
[*,2,2,7]  1 558 2 532 3 343
[*,3,2,7]  1 427 2 595 3 442
[*,4,2,7]  1 511 2 374 3 282
[*,5,2,7]  1 275 2 477 3 394
[*,6,2,7]  1 675 2 474 3 146
[*,7,2,7]  1 392 2 427 3 377
[*,8,2,7]  1 394 2 526 3 535
[*,9,2,7]  1 529 2 507 3 362
[*,10,2,7]  1 392 2 357 3 392
[*,1,3,7]  1 412 2 467 3 572
[*,2,3,7]  1 656 2 472 3 494
[*,3,3,7]  1 195 2 613 3 452
[*,4,3,7]  1 457 2 649 3 562
[*,5,3,7]  1 530 2 548 3 415
[*,6,3,7]  1 646 2 290 3 549
[*,7,3,7]  1 458 2 461 3 525
[*,8,3,7]  1 270 2 468 3 663
[*,9,3,7]  1 517 2 567 3 385
[*,10,3,7]  1 475 2 428 3 554
[*,1,4,7]  1 321 2 401 3 362
[*,2,4,7]  1 409 2 444 3 438
[*,3,4,7]  1 558 2 513 3 201
[*,4,4,7]  1 400 2 518 3 386
[*,5,4,7]  1 477 2 369 3 428
[*,6,4,7]  1 545 2 481 3 462
[*,7,4,7]  1 395 2 428 3 470
[*,8,4,7]  1 260 2 469 3 411
[*,9,4,7]  1 755 2 552 3 296
[*,10,4,7]  1 424 2 515 3 314
[*,1,5,7]  1 403 2 534 3 351
[*,2,5,7]  1 417 2 375 3 636
[*,3,5,7]  1 227 2 378 3 586
[*,4,5,7]  1 709 2 353 3 345
[*,5,5,7]  1 780 2 378 3 317
[*,6,5,7]  1 522 2 511 3 415
[*,7,5,7]  1 380 2 523 3 569
[*,8,5,7]  1 321 2 454 3 393
[*,9,5,7]  1 510 2 507 3 494
[*,10,5,7]  1 431 2 436 3 406
[*,1,6,7]  1 688 2 284 3 179
[*,2,6,7]  1 248 2 512 3 451
[*,3,6,7]  1 315 2 436 3 286
[*,4,6,7]  1 466 2 382 3 274
[*,5,6,7]  1 337 2 297 3 508
[*,6,6,7]  1 355 2 393 3 77
[*,7,6,7]  1 348 2 278 3 359
[*,8,6,7]  1 402 2 307 3 567
[*,9,6,7]  1 543 2 207 3 734
[*,10,6,7]  1 635 2 420 3 428
[*,1,7,7]  1 347 2 354 3 621
[*,2,7,7]  1 506 2 255 3 468
[*,3,7,7]  1 494 2 442 3 565
[*,4,7,7]  1 729 2 223 3 490
[*,5,7,7]  1 400 2 389 3 533
[*,6,7,7]  1 365 2 337 3 336
[*,7,7,7]  1 637 2 482 3 340
[*,8,7,7]  1 509 2 407 3 386
[*,9,7,7]  1 647 2 349 3 259
[*,10,7,7]  1 518 2 335 3 203
[*,1,8,7]  1 335 2 577 3 363
[*,2,8,7]  1 503 2 514 3 348
[*,3,8,7]  1 533 2 499 3 223
[*,4,8,7]  1 381 2 562 3 352
[*,5,8,7]  1 572 2 435 3 411
[*,6,8,7]  1 596 2 290 3 305
[*,7,8,7]  1 132 2 441 3 466
[*,8,8,7]  1 554 2 361 3 529
[*,9,8,7]  1 391 2 457 3 399
[*,10,8,7]  1 514 2 375 3 462
[*,1,9,7]  1 582 2 111 3 613
[*,2,9,7]  1 370 2 409 3 611
[*,3,9,7]  1 569 2 100 3 503
[*,4,9,7]  1 563 2 297 3 366
[*,5,9,7]  1 462 2 364 3 441
[*,6,9,7]  1 201 2 282 3 542
[*,7,9,7]  1 376 2 395 3 498
[*,8,9,7]  1 465 2 535 3 307
[*,9,9,7]  1 548 2 439 3 387
[*,10,9,7]  1 589 2 609 3 382
[*,1,10,7]  1 382 2 516 3 497
[*,2,10,7]  1 457 2 387 3 482
[*,3,10,7]  1 228 2 391 3 770
[*,4,10,7]  1 388 2 359 3 592
[*,5,10,7]  1 393 2 424 3 417
[*,6,10,7]  1 629 2 524 3 298
[*,7,10,7]  1 435 2 484 3 274
[*,8,10,7]  1 433 2 271 3 373
[*,9,10,7]  1 592 2 371 3 308
[*,10,10,7]  1 506 2 442 3 367
[*,1,1,8]  1 248 2 519 3 406
[*,2,1,8]  1 748 2 244 3 237
[*,3,1,8]  1 513 2 403 3 720
[*,4,1,8]  1 362 2 517 3 512
[*,5,1,8]  1 405 2 660 3 157
[*,6,1,8]  1 358 2 707 3 294
[*,7,1,8]  1 709 2 275 3 323
[*,8,1,8]  1 400 2 517 3 433
[*,9,1,8]  1 181 2 734 3 445
[*,10,1,8]  1 501 2 430 3 292
[*,1,2,8]  1 165 2 729 3 498
[*,2,2,8]  1 459 2 574 3 495
[*,3,2,8]  1 550 2 471 3 367
[*,4,2,8]  1 358 2 615 3 507
[*,5,2,8]  1 265 2 512 3 615
[*,6,2,8]  1 570 2 350 3 469
[*,7,2,8]  1 600 2 361 3 271
[*,8,2,8]  1 534 2 239 3 427
[*,9,2,8]  1 462 2 484 3 641
[*,10,2,8]  1 242 2 390 3 410
[*,1,3,8]  1 378 2 515 3 389
[*,2,3,8]  1 377 2 344 3 666
[*,3,3,8]  1 493 2 404 3 401
[*,4,3,8]  1 557 2 455 3 351
[*,5,3,8]  1 410 2 639 3 382
[*,6,3,8]  1 453 2 420 3 466
[*,7,3,8]  1 588 2 467 3 253
[*,8,3,8]  1 438 2 537 3 432
[*,9,3,8]  1 531 2 517 3 255
[*,10,3,8]  1 151 2 626 3 314
[*,1,4,8]  1 354 2 457 3 434
[*,2,4,8]  1 456 2 439 3 590
[*,3,4,8]  1 352 2 458 3 478
[*,4,4,8]  1 429 2 690 3 267
[*,5,4,8]  1 408 2 730 3 283
[*,6,4,8]  1 264 2 536 3 363
[*,7,4,8]  1 375 2 309 3 508
[*,8,4,8]  1 224 2 522 3 426
[*,9,4,8]  1 685 2 340 3 451
[*,10,4,8]  1 276 2 520 3 379
[*,1,5,8]  1 271 2 417 3 320
[*,2,5,8]  1 472 2 484 3 461
[*,3,5,8]  1 506 2 409 3 444
[*,4,5,8]  1 359 2 441 3 548
[*,5,5,8]  1 451 2 254 3 388
[*,6,5,8]  1 222 2 519 3 371
[*,7,5,8]  1 604 2 158 3 470
[*,8,5,8]  1 408 2 551 3 463
[*,9,5,8]  1 521 2 517 3 458
[*,10,5,8]  1 262 2 396 3 442
[*,1,6,8]  1 484 2 587 3 292
[*,2,6,8]  1 434 2 337 3 438
[*,3,6,8]  1 426 2 486 3 454
[*,4,6,8]  1 556 2 433 3 336
[*,5,6,8]  1 560 2 482 3 426
[*,6,6,8]  1 295 2 415 3 475
[*,7,6,8]  1 650 2 379 3 398
[*,8,6,8]  1 287 2 522 3 551
[*,9,6,8]  1 348 2 463 3 542
[*,10,6,8]  1 215 2 526 3 390
[*,1,7,8]  1 263 2 455 3 460
[*,2,7,8]  1 456 2 493 3 438
[*,3,7,8]  1 628 2 359 3 332
[*,4,7,8]  1 711 2 469 3 315
[*,5,7,8]  1 472 2 402 3 325
[*,6,7,8]  1 459 2 391 3 358
[*,7,7,8]  1 259 2 301 3 636
[*,8,7,8]  1 433 2 431 3 230
[*,9,7,8]  1 346 2 397 3 408
[*,10,7,8]  1 479 2 316 3 314
[*,1,8,8]  1 607 2 308 3 497
[*,2,8,8]  1 595 2 453 3 317
[*,3,8,8]  1 512 2 438 3 163
[*,4,8,8]  1 481 2 495 3 391
[*,5,8,8]  1 370 2 591 3 391
[*,6,8,8]  1 529 2 558 3 351
[*,7,8,8]  1 481 2 376 3 260
[*,8,8,8]  1 485 2 351 3 441
[*,9,8,8]  1 278 2 409 3 483
[*,10,8,8]  1 487 2 566 3 466
[*,1,9,8]  1 529 2 174 3 519
[*,2,9,8]  1 416 2 702 3 345
[*,3,9,8]  1 389 2 586 3 382
[*,4,9,8]  1 466 2 522 3 280
[*,5,9,8]  1 458 2 664 3 391
[*,6,9,8]  1 612 2 555 3 274
[*,7,9,8]  1 464 2 479 3 515
[*,8,9,8]  1 423 2 378 3 482
[*,9,9,8]  1 436 2 399 3 538
[*,10,9,8]  1 148 2 434 3 709
[*,1,10,8]  1 594 2 334 3 512
[*,2,10,8]  1 366 2 253 3 384
[*,3,10,8]  1 245 2 346 3 373
[*,4,10,8]  1 579 2 416 3 607
[*,5,10,8]  1 594 2 342 3 345
[*,6,10,8]  1 399 2 333 3 285
[*,7,10,8]  1 524 2 383 3 320
[*,8,10,8]  1 436 2 612 3 381
[*,9,10,8]  1 537 2 408 3 628
[*,10,10,8]  1 627 2 57 3 556
[*,1,1,9]  1 288 2 516 3 475
[*,2,1,9]  1 376 2 525 3 529
[*,3,1,9]  1 269 2 398 3 158
[*,4,1,9]  1 502 2 453 3 385
[*,5,1,9]  1 457 2 370 3 494
[*,6,1,9]  1 553 2 228 3 363
[*,7,1,9]  1 580 2 290 3 461
[*,8,1,9]  1 248 2 317 3 524
[*,9,1,9]  1 587 2 413 3 501
[*,10,1,9]  1 372 2 478 3 358
[*,1,2,9]  1 192 2 248 3 730
[*,2,2,9]  1 284 2 570 3 157
[*,3,2,9]  1 413 2 204 3 479
[*,4,2,9]  1 537 2 491 3 310
[*,5,2,9]  1 625 2 59 3 557
[*,6,2,9]  1 416 2 462 3 684
[*,7,2,9]  1 473 2 473 3 463
[*,8,2,9]  1 569 2 330 3 448
[*,9,2,9]  1 522 2 487 3 409
[*,10,2,9]  1 497 2 481 3 292
[*,1,3,9]  1 311 2 412 3 609
[*,2,3,9]  1 360 2 499 3 389
[*,3,3,9]  1 586 2 497 3 378
[*,4,3,9]  1 369 2 443 3 431
[*,5,3,9]  1 458 2 467 3 428
[*,6,3,9]  1 519 2 546 3 413
[*,7,3,9]  1 344 2 373 3 522
[*,8,3,9]  1 420 2 583 3 405
[*,9,3,9]  1 212 2 544 3 445
[*,10,3,9]  1 519 2 397 3 490
[*,1,4,9]  1 328 2 221 3 309
[*,2,4,9]  1 367 2 405 3 423
[*,3,4,9]  1 420 2 417 3 415
[*,4,4,9]  1 504 2 366 3 487
[*,5,4,9]  1 356 2 284 3 571
[*,6,4,9]  1 566 2 277 3 640
[*,7,4,9]  1 409 2 403 3 804
[*,8,4,9]  1 363 2 350 3 256
[*,9,4,9]  1 440 2 567 3 374
[*,10,4,9]  1 529 2 332 3 467
[*,1,5,9]  1 396 2 410 3 400
[*,2,5,9]  1 569 2 261 3 537
[*,3,5,9]  1 344 2 454 3 632
[*,4,5,9]  1 547 2 375 3 406
[*,5,5,9]  1 372 2 378 3 262
[*,6,5,9]  1 300 2 382 3 639
[*,7,5,9]  1 358 2 352 3 623
[*,8,5,9]  1 407 2 257 3 510
[*,9,5,9]  1 407 2 482 3 274
[*,10,5,9]  1 479 2 598 3 448
[*,1,6,9]  1 343 2 359 3 440
[*,2,6,9]  1 351 2 378 3 273
[*,3,6,9]  1 453 2 472 3 454
[*,4,6,9]  1 553 2 180 3 568
[*,5,6,9]  1 452 2 399 3 557
[*,6,6,9]  1 551 2 436 3 306
[*,7,6,9]  1 452 2 645 3 268
[*,8,6,9]  1 362 2 188 3 377
[*,9,6,9]  1 407 2 458 3 327
[*,10,6,9]  1 670 2 475 3 299
[*,1,7,9]  1 526 2 313 3 431
[*,2,7,9]  1 524 2 480 3 200
[*,3,7,9]  1 538 2 330 3 531
[*,4,7,9]  1 317 2 307 3 377
[*,5,7,9]  1 499 2 353 3 666
[*,6,7,9]  1 504 2 431 3 430
[*,7,7,9]  1 745 2 431 3 311
[*,8,7,9]  1 416 2 343 3 517
[*,9,7,9]  1 497 2 297 3 460
[*,10,7,9]  1 523 2 380 3 525
[*,1,8,9]  1 157 2 573 3 471
[*,2,8,9]  1 499 2 301 3 509
[*,3,8,9]  1 336 2 591 3 498
[*,4,8,9]  1 541 2 475 3 697
[*,5,8,9]  1 469 2 464 3 451
[*,6,8,9]  1 388 2 524 3 455
[*,7,8,9]  1 448 2 572 3 441
[*,8,8,9]  1 375 2 398 3 445
[*,9,8,9]  1 333 2 401 3 733
[*,10,8,9]  1 417 2 381 3 453
[*,1,9,9]  1 462 2 318 3 475
[*,2,9,9]  1 502 2 373 3 510
[*,3,9,9]  1 500 2 472 3 594
[*,4,9,9]  1 398 2 220 3 375
[*,5,9,9]  1 479 2 409 3 436
[*,6,9,9]  1 477 2 342 3 387
[*,7,9,9]  1 94 2 577 3 619
[*,8,9,9]  1 561 2 222 3 407
[*,9,9,9]  1 526 2 392 3 518
[*,10,9,9]  1 383 2 350 3 466
[*,1,10,9]  1 85 2 545 3 641
[*,2,10,9]  1 478 2 583 3 199
[*,3,10,9]  1 465 2 548 3 538
[*,4,10,9]  1 575 2 590 3 297
[*,5,10,9]  1 713 2 306 3 555
[*,6,10,9]  1 356 2 640 3 355
[*,7,10,9]  1 366 2 243 3 633
[*,8,10,9]  1 590 2 412 3 563
[*,9,10,9]  1 555 2 603 3 325
[*,10,10,9]  1 324 2 175 3 433
[*,1,1,10]  1 296 2 717 3 458
[*,2,1,10]  1 349 2 490 3 89
[*,3,1,10]  1 503 2 466 3 478
[*,4,1,10]  1 350 2 545 3 468
[*,5,1,10]  1 511 2 541 3 381
[*,6,1,10]  1 234 2 358 3 517
[*,7,1,10]  1 338 2 382 3 514
[*,8,1,10]  1 329 2 397 3 452
[*,9,1,10]  1 488 2 454 3 499
[*,10,1,10]  1 559 2 468 3 646
[*,1,2,10]  1 644 2 435 3 204
[*,2,2,10]  1 461 2 312 3 511
[*,3,2,10]  1 303 2 528 3 508
[*,4,2,10]  1 559 2 367 3 290
[*,5,2,10]  1 359 2 520 3 428
[*,6,2,10]  1 571 2 495 3 321
[*,7,2,10]  1 283 2 319 3 524
[*,8,2,10]  1 691 2 388 3 500
[*,9,2,10]  1 558 2 350 3 479
[*,10,2,10]  1 467 2 457 3 416
[*,1,3,10]  1 402 2 445 3 379
[*,2,3,10]  1 526 2 379 3 519
[*,3,3,10]  1 235 2 454 3 357
[*,4,3,10]  1 432 2 214 3 323
[*,5,3,10]  1 440 2 474 3 419
[*,6,3,10]  1 568 2 501 3 355
[*,7,3,10]  1 550 2 516 3 478
[*,8,3,10]  1 572 2 450 3 523
[*,9,3,10]  1 420 2 481 3 436
[*,10,3,10]  1 206 2 341 3 317
[*,1,4,10]  1 702 2 261 3 582
[*,2,4,10]  1 304 2 450 3 211
[*,3,4,10]  1 260 2 414 3 614
[*,4,4,10]  1 481 2 258 3 711
[*,5,4,10]  1 602 2 368 3 402
[*,6,4,10]  1 375 2 520 3 302
[*,7,4,10]  1 642 2 450 3 260
[*,8,4,10]  1 422 2 209 3 673
[*,9,4,10]  1 267 2 699 3 475
[*,10,4,10]  1 382 2 610 3 457
[*,1,5,10]  1 595 2 325 3 385
[*,2,5,10]  1 530 2 200 3 575
[*,3,5,10]  1 367 2 429 3 306
[*,4,5,10]  1 407 2 488 3 375
[*,5,5,10]  1 262 2 337 3 507
[*,6,5,10]  1 259 2 454 3 527
[*,7,5,10]  1 562 2 427 3 326
[*,8,5,10]  1 517 2 483 3 363
[*,9,5,10]  1 322 2 348 3 432
[*,10,5,10]  1 384 2 438 3 609
[*,1,6,10]  1 115 2 580 3 546
[*,2,6,10]  1 623 2 311 3 506
[*,3,6,10]  1 471 2 593 3 264
[*,4,6,10]  1 450 2 447 3 437
[*,5,6,10]  1 334 2 462 3 471
[*,6,6,10]  1 189 2 125 3 647
[*,7,6,10]  1 503 2 371 3 618
[*,8,6,10]  1 499 2 403 3 313
[*,9,6,10]  1 395 2 348 3 570
[*,10,6,10]  1 388 2 559 3 370
[*,1,7,10]  1 591 2 384 3 323
[*,2,7,10]  1 371 2 448 3 413
[*,3,7,10]  1 645 2 492 3 289
[*,4,7,10]  1 485 2 633 3 565
[*,5,7,10]  1 419 2 248 3 404
[*,6,7,10]  1 634 2 341 3 561
[*,7,7,10]  1 263 2 520 3 574
[*,8,7,10]  1 613 2 465 3 410
[*,9,7,10]  1 418 2 493 3 281
[*,10,7,10]  1 472 2 325 3 399
[*,1,8,10]  1 264 2 498 3 517
[*,2,8,10]  1 479 2 608 3 617
[*,3,8,10]  1 374 2 236 3 251
[*,4,8,10]  1 317 2 477 3 300
[*,5,8,10]  1 432 2 476 3 345
[*,6,8,10]  1 469 2 313 3 556
[*,7,8,10]  1 446 2 265 3 462
[*,8,8,10]  1 454 2 210 3 593
[*,9,8,10]  1 422 2 455 3 404
[*,10,8,10]  1 60 2 636 3 446
[*,1,9,10]  1 337 2 469 3 360
[*,2,9,10]  1 666 2 368 3 288
[*,3,9,10]  1 566 2 545 3 527
[*,4,9,10]  1 291 2 743 3 189
[*,5,9,10]  1 425 2 416 3 567
[*,6,9,10]  1 568 2 451 3 333
[*,7,9,10]  1 413 2 436 3 472
[*,8,9,10]  1 690 2 257 3 455
[*,9,9,10]  1 600 2 535 3 442
[*,10,9,10]  1 401 2 417 3 285
[*,1,10,10]  1 412 2 394 3 396
[*,2,10,10]  1 509 2 533 3 356
[*,3,10,10]  1 398 2 446 3 386
[*,4,10,10]  1 306 2 336 3 440
[*,5,10,10]  1 348 2 242 3 362
[*,6,10,10]  1 609 2 290 3 466
[*,7,10,10]  1 619 2 176 3 527
[*,8,10,10]  1 232 2 616 3 489
[*,9,10,10]  1 327 2 138 3 684
[*,10,10,10]  1 437 2 528 3 421;

#param U :=  1 999.0 2 835.0 3 789.0;
#param pu :=  1 1000.0 2 863.0 3 866.0;
#param pl :=  1 1.0 2 28.0 3 77.0;
